238
3419
182
0 2
0 3
0 11
0 106
0 109
0 125
0 140
1 5
1 10
1 14
1 21
1 107
1 123
1 127
1 131
1 137
1 193
2 3
2 11
2 18
2 19
2 20
2 23
2 27
2 28
2 32
2 36
2 37
2 46
2 91
2 106
2 109
2 125
2 140
3 11
3 18
3 19
3 20
3 23
3 27
3 28
3 32
3 36
3 37
3 46
3 56
3 57
3 58
3 59
3 62
3 91
3 106
3 109
3 125
3 140
3 145
3 178
3 199
3 212
4 6
4 7
4 8
4 9
4 12
4 13
4 22
4 24
4 25
4 30
4 41
4 42
4 44
4 48
4 50
4 60
4 108
4 110
4 111
4 114
4 116
4 118
4 119
4 120
4 122
4 124
4 126
4 128
4 129
4 133
4 147
4 180
4 196
4 215
5 10
5 14
5 21
5 26
5 29
5 31
5 33
5 38
5 39
5 40
5 43
5 45
5 47
5 49
5 51
5 107
5 123
5 127
5 131
5 137
5 193
6 7
6 8
6 9
6 12
6 13
6 22
6 24
6 25
6 30
6 41
6 42
6 44
6 48
6 50
6 60
6 113
6 115
6 117
6 130
6 132
6 134
6 135
6 136
6 139
6 141
6 142
6 144
6 146
6 149
6 154
6 156
6 157
6 159
6 160
6 161
6 162
6 165
6 170
6 184
6 202
6 218
6 229
6 233
7 8
7 9
7 12
7 13
7 22
7 24
7 25
7 30
7 41
7 42
7 44
7 48
7 50
7 60
7 122
7 124
7 126
7 128
7 129
7 133
7 147
7 180
7 196
7 215
8 9
8 12
8 13
8 22
8 24
8 25
8 30
8 41
8 42
8 44
8 48
8 50
8 60
9 12
9 13
9 22
9 24
9 25
9 30
9 41
9 42
9 44
9 48
9 50
9 60
9 113
9 115
9 117
9 130
9 132
9 134
9 135
9 136
10 14
10 21
10 26
10 29
10 31
10 33
10 38
10 39
10 40
10 43
10 45
10 47
10 49
10 51
10 62
10 78
10 79
10 95
10 98
10 99
10 102
10 107
10 114
10 123
10 127
10 131
10 137
10 185
10 193
10 203
11 18
11 19
11 20
11 23
11 27
11 28
11 32
11 36
11 37
11 46
11 61
11 63
11 64
11 65
11 66
11 67
11 68
11 80
11 81
11 82
11 85
11 91
11 106
11 109
11 116
11 120
11 125
11 133
11 140
11 165
12 13
12 22
12 24
12 25
12 30
12 41
12 42
12 44
12 48
12 50
12 60
12 99
12 102
12 113
12 115
12 117
12 130
12 132
12 134
12 135
12 136
12 143
12 145
12 150
12 151
12 158
12 166
12 167
13 22
13 24
13 25
13 30
13 41
13 42
13 44
13 48
13 50
13 60
13 66
13 113
13 115
13 117
13 130
13 132
13 134
13 135
13 136
13 152
13 153
13 168
13 169
13 187
13 206
14 21
14 26
14 29
14 31
14 33
14 38
14 39
14 40
14 43
14 45
14 47
14 49
14 51
14 83
14 84
14 96
14 97
14 100
14 101
14 103
14 104
14 107
14 118
14 119
14 123
14 127
14 131
14 137
14 170
14 193
15 17
15 22
15 26
15 29
15 31
15 33
15 34
15 41
15 44
15 48
15 50
15 53
15 55
15 87
15 139
15 154
15 171
15 174
15 192
15 222
16 21
16 24
16 25
16 30
16 42
16 52
16 60
16 70
16 172
16 190
17 22
17 26
17 29
17 31
17 33
17 53
17 55
17 174
17 192
18 19
18 20
18 23
18 27
18 28
18 32
18 36
18 37
18 46
18 91
18 109
18 125
19 20
19 23
19 27
19 28
19 32
19 36
19 37
19 46
19 56
19 57
19 58
19 59
19 62
19 91
19 109
19 125
19 145
19 178
19 199
19 212
20 23
20 27
20 28
20 32
20 36
20 37
20 46
20 56
20 57
20 58
20 59
20 62
20 72
20 73
20 75
20 78
20 79
20 83
20 84
20 91
20 109
20 111
20 114
20 118
20 119
20 125
20 128
20 145
20 178
20 199
20 212
21 24
21 25
21 26
21 29
21 30
21 31
21 33
21 38
21 39
21 40
21 42
21 43
21 45
21 47
21 49
21 51
21 52
21 60
21 70
21 107
21 123
21 127
21 131
21 137
21 172
21 190
21 193
22 24
22 25
22 26
22 29
22 30
22 31
22 33
22 34
22 41
22 42
22 44
22 48
22 50
22 53
22 55
22 60
22 87
22 122
22 124
22 126
22 128
22 129
22 133
22 139
22 147
22 154
22 171
22 174
22 180
22 192
22 196
22 215
22 222
23 27
23 28
23 32
23 36
23 37
23 40
23 46
23 56
23 57
23 58
23 59
23 62
23 69
23 76
23 77
23 86
23 91
23 94
23 109
23 125
23 145
23 162
23 178
23 199
23 212
23 230
24 25
24 30
24 41
24 42
24 44
24 48
24 50
24 52
24 60
24 70
24 172
24 190
25 30
25 41
25 42
25 44
25 48
25 50
25 52
25 60
25 70
25 113
25 115
25 117
25 130
25 132
25 134
25 135
25 136
25 172
25 190
26 29
26 31
26 33
26 38
26 39
26 40
26 43
26 45
26 47
26 49
26 51
26 53
26 55
26 62
26 78
26 79
26 95
26 98
26 99
26 102
26 114
26 127
26 131
26 137
26 174
26 185
26 192
26 203
27 28
27 32
27 36
27 37
27 46
27 61
27 63
27 64
27 65
27 66
27 67
27 68
27 80
27 81
27 82
27 85
27 91
27 109
27 116
27 120
27 125
27 133
27 165
28 32
28 36
28 37
28 46
28 61
28 63
28 64
28 65
28 66
28 67
28 68
28 80
28 81
28 82
28 85
28 91
28 109
28 116
28 120
28 125
28 133
28 165
28 175
28 180
28 181
28 183
28 185
28 186
29 31
29 33
29 38
29 39
29 40
29 43
29 45
29 47
29 49
29 51
29 53
29 55
29 81
29 83
29 84
29 96
29 97
29 100
29 101
29 103
29 104
29 118
29 119
29 127
29 131
29 137
29 170
29 174
29 182
29 187
29 192
29 220
29 235
29 236
30 41
30 42
30 44
30 48
30 50
30 52
30 60
30 66
30 70
30 113
30 115
30 117
30 130
30 132
30 134
30 135
30 136
30 152
30 153
30 168
30 169
30 172
30 187
30 190
30 206
31 33
31 38
31 39
31 40
31 43
31 45
31 47
31 49
31 51
31 53
31 55
31 65
31 83
31 84
31 96
31 97
31 100
31 101
31 103
31 104
31 118
31 119
31 127
31 131
31 137
31 170
31 174
31 184
31 188
31 192
31 205
31 229
31 231
31 232
31 233
31 237
32 36
32 37
32 46
32 61
32 63
32 64
32 65
32 66
32 67
32 68
32 80
32 81
32 82
32 85
32 91
32 109
32 116
32 120
32 125
32 133
32 165
32 171
32 177
32 179
32 182
32 184
32 187
32 188
32 189
33 38
33 39
33 40
33 43
33 45
33 47
33 49
33 51
33 53
33 55
33 83
33 84
33 96
33 97
33 100
33 101
33 103
33 104
33 118
33 119
33 127
33 131
33 137
33 170
33 174
33 192
34 41
34 44
34 48
34 50
34 53
34 87
34 139
34 154
34 171
34 222
35 36
35 37
35 42
35 46
35 72
35 88
35 91
35 141
35 156
35 223
36 37
36 42
36 46
36 72
36 88
36 91
36 109
36 125
36 141
36 156
36 223
37 42
37 46
37 56
37 57
37 58
37 59
37 62
37 72
37 88
37 91
37 109
37 125
37 141
37 145
37 156
37 178
37 199
37 212
37 223
38 39
38 40
38 43
38 45
38 47
38 49
38 51
38 86
38 89
38 92
38 93
38 94
38 127
38 131
38 137
38 144
38 159
38 160
38 162
38 165
38 177
38 194
38 197
38 213
38 227
38 230
39 40
39 43
39 45
39 47
39 49
39 51
39 127
39 131
39 137
40 43
40 45
40 47
40 49
40 51
40 58
40 59
40 69
40 76
40 77
40 86
40 89
40 92
40 93
40 94
40 127
40 131
40 137
40 144
40 159
40 160
40 162
40 165
40 177
40 194
40 197
40 199
40 213
40 227
40 230
41 42
41 44
41 48
41 50
41 53
41 60
41 87
41 139
41 154
41 171
41 222
42 44
42 46
42 48
42 50
42 52
42 60
42 70
42 72
42 88
42 91
42 141
42 156
42 172
42 190
42 223
43 45
43 47
43 49
43 51
43 62
43 78
43 79
43 95
43 98
43 99
43 102
43 114
43 127
43 131
43 137
43 155
43 158
43 163
43 164
43 166
43 167
43 168
43 169
43 185
43 203
44 48
44 50
44 53
44 60
44 87
44 113
44 115
44 117
44 130
44 132
44 134
44 135
44 136
44 139
44 141
44 142
44 144
44 146
44 149
44 154
44 171
44 184
44 202
44 218
44 222
44 229
44 233
45 47
45 49
45 51
45 62
45 78
45 79
45 95
45 98
45 99
45 102
45 114
45 127
45 131
45 137
45 185
45 203
46 61
46 63
46 64
46 65
46 66
46 67
46 68
46 72
46 80
46 81
46 82
46 85
46 88
46 91
46 109
46 116
46 120
46 125
46 133
46 141
46 156
46 165
46 223
47 49
47 51
47 81
47 83
47 84
47 96
47 97
47 100
47 101
47 103
47 104
47 118
47 119
47 127
47 131
47 137
47 170
47 182
47 187
47 220
47 235
47 236
48 50
48 53
48 60
48 87
48 99
48 102
48 113
48 115
48 117
48 130
48 132
48 134
48 135
48 136
48 139
48 143
48 145
48 150
48 151
48 154
48 158
48 166
48 167
48 171
48 222
49 51
49 65
49 83
49 84
49 96
49 97
49 100
49 101
49 103
49 104
49 118
49 119
49 127
49 131
49 137
49 170
49 184
49 188
49 205
49 229
49 231
49 232
49 233
49 237
50 53
50 60
50 66
50 87
50 113
50 115
50 117
50 130
50 132
50 134
50 135
50 136
50 139
50 152
50 153
50 154
50 168
50 169
50 171
50 187
50 206
50 222
51 83
51 84
51 96
51 97
51 100
51 101
51 103
51 104
51 118
51 119
51 127
51 131
51 137
51 170
52 53
52 54
52 55
52 60
52 70
52 71
52 89
52 122
52 172
52 173
52 174
52 190
52 191
52 192
52 209
52 224
53 54
53 55
53 60
53 70
53 71
53 87
53 89
53 122
53 139
53 154
53 171
53 172
53 173
53 174
53 190
53 191
53 192
53 209
53 222
53 224
54 55
54 60
54 70
54 71
54 89
54 122
54 172
54 173
54 174
54 190
54 191
54 192
54 209
54 224
55 60
55 70
55 71
55 89
55 122
55 172
55 173
55 174
55 190
55 191
55 192
55 209
55 224
56 57
56 58
56 59
56 62
56 145
56 178
56 199
56 212
57 58
57 59
57 62
57 72
57 73
57 75
57 78
57 79
57 83
57 84
57 111
57 114
57 118
57 119
57 128
57 145
57 178
57 199
57 212
58 59
58 62
58 69
58 76
58 77
58 86
58 94
58 145
58 162
58 178
58 199
58 212
58 230
59 62
59 69
59 76
59 77
59 86
59 94
59 105
59 106
59 107
59 109
59 112
59 113
59 115
59 117
59 145
59 162
59 178
59 199
59 212
59 230
60 70
60 71
60 89
60 122
60 172
60 173
60 174
60 190
60 191
60 192
60 209
60 224
61 63
61 64
61 65
61 66
61 67
61 68
61 80
61 81
61 82
61 85
61 116
61 120
61 133
61 165
61 175
61 180
61 181
61 182
61 183
61 185
61 186
61 187
61 193
61 196
61 200
61 201
61 202
61 206
62 72
62 73
62 75
62 78
62 79
62 83
62 84
62 95
62 98
62 99
62 102
62 111
62 114
62 118
62 119
62 128
62 131
62 145
62 178
62 185
62 199
62 203
62 212
63 64
63 65
63 66
63 67
63 68
63 80
63 81
63 82
63 85
63 116
63 120
63 133
63 165
64 65
64 66
64 67
64 68
64 80
64 81
64 82
64 85
64 116
64 120
64 133
64 165
64 175
64 180
64 181
64 183
64 185
64 186
65 66
65 67
65 68
65 80
65 81
65 82
65 83
65 85
65 96
65 97
65 103
65 116
65 118
65 120
65 133
65 165
65 171
65 177
65 179
65 182
65 184
65 187
65 188
65 189
65 205
65 229
65 231
65 232
65 233
65 237
66 67
66 68
66 80
66 81
66 82
66 85
66 116
66 120
66 133
66 134
66 136
66 152
66 153
66 165
66 168
66 169
66 175
66 180
66 181
66 182
66 183
66 185
66 186
66 187
66 193
66 196
66 200
66 201
66 202
66 206
67 68
67 80
67 81
67 82
67 85
67 116
67 120
67 133
67 165
67 175
67 180
67 181
67 183
67 185
67 186
67 194
67 197
67 198
67 203
67 205
67 207
68 80
68 81
68 82
68 85
68 116
68 120
68 133
68 165
68 171
68 177
68 179
68 182
68 184
68 187
68 188
68 189
69 76
69 77
69 86
69 94
69 105
69 106
69 107
69 109
69 112
69 113
69 115
69 117
69 121
69 123
69 125
69 127
69 131
69 137
69 138
69 140
69 155
69 162
69 193
69 199
69 208
69 230
70 71
70 74
70 80
70 81
70 82
70 85
70 89
70 92
70 108
70 116
70 120
70 122
70 124
70 133
70 159
70 165
70 172
70 173
70 174
70 190
70 191
70 192
70 194
70 209
70 224
71 74
71 80
71 81
71 82
71 85
71 89
71 92
71 108
71 116
71 120
71 122
71 124
71 133
71 159
71 165
71 172
71 173
71 174
71 190
71 191
71 192
71 194
71 209
71 224
72 73
72 75
72 78
72 79
72 83
72 84
72 87
72 88
72 90
72 91
72 111
72 114
72 118
72 119
72 128
72 139
72 141
72 142
72 154
72 156
72 157
72 171
72 175
72 210
72 222
72 223
72 225
73 75
73 78
73 79
73 83
73 84
73 87
73 88
73 90
73 91
73 111
73 114
73 118
73 119
73 128
73 139
73 141
73 142
73 154
73 156
73 157
73 171
73 175
73 210
73 222
73 223
73 225
74 80
74 81
74 82
74 85
74 89
74 92
74 108
74 116
74 120
74 122
74 124
74 133
74 159
74 165
74 194
75 78
75 79
75 83
75 84
75 111
75 114
75 118
75 119
75 128
76 77
76 86
76 94
76 162
76 199
76 230
77 86
77 94
77 105
77 106
77 107
77 109
77 112
77 113
77 115
77 117
77 162
77 199
77 230
78 79
78 83
78 84
78 95
78 98
78 99
78 102
78 111
78 114
78 118
78 119
78 128
78 131
78 155
78 158
78 163
78 164
78 166
78 167
78 168
78 169
78 185
78 203
79 83
79 84
79 95
79 98
79 99
79 102
79 111
79 114
79 118
79 119
79 128
79 131
79 185
79 203
80 81
80 82
80 85
80 89
80 92
80 108
80 116
80 120
80 122
80 124
80 133
80 159
80 165
80 194
81 82
81 85
81 89
81 92
81 101
81 108
81 116
81 120
81 122
81 124
81 133
81 159
81 165
81 171
81 177
81 179
81 182
81 184
81 187
81 188
81 189
81 194
81 220
81 235
81 236
82 85
82 89
82 92
82 108
82 116
82 120
82 122
82 124
82 133
82 159
82 165
82 175
82 180
82 181
82 183
82 185
82 186
82 194
83 84
83 96
83 97
83 100
83 101
83 103
83 104
83 111
83 114
83 118
83 119
83 128
83 137
83 170
83 184
83 188
83 205
83 229
83 231
83 232
83 233
83 237
84 96
84 97
84 100
84 101
84 103
84 104
84 111
84 114
84 118
84 119
84 128
84 137
84 170
85 89
85 92
85 108
85 116
85 120
85 122
85 124
85 133
85 159
85 165
85 171
85 177
85 179
85 182
85 184
85 187
85 188
85 189
85 194
86 89
86 92
86 93
86 94
86 105
86 106
86 107
86 109
86 112
86 113
86 115
86 117
86 121
86 123
86 125
86 127
86 131
86 137
86 138
86 140
86 144
86 155
86 159
86 160
86 162
86 165
86 177
86 193
86 194
86 197
86 199
86 208
86 213
86 227
86 230
87 88
87 90
87 91
87 139
87 141
87 142
87 154
87 156
87 157
87 171
87 175
87 210
87 222
87 223
87 225
88 90
88 91
88 139
88 141
88 142
88 154
88 156
88 157
88 171
88 175
88 210
88 222
88 223
88 225
89 92
89 93
89 94
89 108
89 116
89 120
89 122
89 124
89 133
89 144
89 159
89 160
89 162
89 165
89 172
89 173
89 174
89 177
89 190
89 191
89 192
89 194
89 197
89 209
89 213
89 224
89 227
89 230
90 91
90 139
90 141
90 142
90 154
90 156
90 157
90 171
90 175
90 210
90 222
90 223
90 225
91 109
91 125
91 139
91 141
91 142
91 154
91 156
91 157
91 171
91 175
91 210
91 222
91 223
91 225
92 93
92 94
92 108
92 116
92 120
92 122
92 124
92 133
92 144
92 159
92 160
92 162
92 165
92 177
92 194
92 197
92 213
92 227
92 230
93 94
93 144
93 159
93 160
93 162
93 165
93 177
93 194
93 197
93 213
93 227
93 230
94 144
94 159
94 160
94 162
94 165
94 177
94 194
94 197
94 199
94 213
94 227
94 230
95 96
95 98
95 99
95 102
95 114
95 131
95 138
95 140
95 147
95 148
95 155
95 158
95 163
95 164
95 166
95 167
95 168
95 169
95 180
95 181
95 182
95 185
95 193
95 196
95 200
95 203
95 208
95 215
95 216
95 231
96 97
96 100
96 101
96 103
96 104
96 118
96 119
96 137
96 138
96 140
96 147
96 148
96 155
96 163
96 170
96 180
96 181
96 182
96 184
96 188
96 193
96 196
96 200
96 205
96 208
96 215
96 216
96 217
96 218
96 229
96 231
96 232
96 233
96 237
97 100
97 101
97 103
97 104
97 118
97 119
97 137
97 170
97 184
97 188
97 205
97 208
97 215
97 216
97 217
97 218
97 229
97 231
97 232
97 233
97 237
98 99
98 102
98 114
98 131
98 185
98 203
99 102
99 114
99 115
99 117
99 131
99 135
99 143
99 145
99 150
99 151
99 155
99 158
99 163
99 164
99 166
99 167
99 168
99 169
99 185
99 190
99 191
99 192
99 195
99 199
99 203
99 204
99 235
100 101
100 103
100 104
100 118
100 119
100 134
100 137
100 170
100 209
100 211
100 212
100 219
100 224
100 226
100 234
101 103
101 104
101 118
101 119
101 137
101 170
101 182
101 187
101 220
101 235
101 236
102 114
102 115
102 117
102 131
102 135
102 143
102 145
102 150
102 151
102 155
102 158
102 163
102 164
102 166
102 167
102 168
102 169
102 185
102 203
103 104
103 118
103 119
103 137
103 170
103 184
103 188
103 205
103 229
103 231
103 232
103 233
103 237
104 118
104 119
104 137
104 170
105 106
105 107
105 109
105 112
105 113
105 115
105 117
105 121
105 123
105 125
105 127
105 131
105 137
105 138
105 140
105 155
105 193
105 208
106 107
106 109
106 112
106 113
106 115
106 117
106 121
106 123
106 125
106 127
106 131
106 137
106 138
106 140
106 155
106 193
106 208
107 109
107 112
107 113
107 115
107 117
107 121
107 123
107 125
107 127
107 131
107 137
107 138
107 140
107 155
107 193
107 208
108 110
108 111
108 114
108 116
108 118
108 119
108 120
108 122
108 124
108 126
108 128
108 133
108 159
108 165
108 194
108 196
109 112
109 113
109 115
109 117
109 121
109 123
109 125
109 127
109 131
109 137
109 138
109 140
109 155
109 193
109 208
110 111
110 114
110 116
110 118
110 119
110 120
110 122
110 124
110 126
110 128
110 133
110 196
111 114
111 116
111 118
111 119
111 120
111 122
111 124
111 126
111 128
111 133
111 196
112 113
112 115
112 117
113 115
113 117
113 130
113 132
113 134
113 135
113 136
114 116
114 118
114 119
114 120
114 122
114 124
114 126
114 128
114 131
114 133
114 185
114 196
114 203
115 117
115 130
115 132
115 134
115 135
115 136
115 143
115 145
115 150
115 151
115 158
115 166
115 167
115 190
115 191
115 192
115 195
115 199
115 204
115 235
116 118
116 119
116 120
116 122
116 124
116 126
116 128
116 133
116 159
116 165
116 194
116 196
117 130
117 132
117 134
117 135
117 136
117 143
117 145
117 150
117 151
117 158
117 166
117 167
118 119
118 120
118 122
118 124
118 126
118 128
118 133
118 137
118 170
118 184
118 188
118 196
118 205
118 229
118 231
118 232
118 233
118 237
119 120
119 122
119 124
119 126
119 128
119 133
119 137
119 170
119 196
120 122
120 124
120 126
120 128
120 133
120 159
120 165
120 171
120 177
120 179
120 182
120 184
120 187
120 188
120 189
120 194
120 196
121 123
121 125
121 127
121 131
121 137
121 138
121 140
121 155
121 193
121 208
122 124
122 126
122 128
122 129
122 133
122 147
122 159
122 165
122 172
122 173
122 174
122 180
122 190
122 191
122 192
122 194
122 196
122 209
122 215
122 224
123 125
123 127
123 131
123 137
123 138
123 140
123 155
123 193
123 208
124 126
124 128
124 129
124 133
124 147
124 159
124 165
124 180
124 194
124 196
124 215
125 127
125 131
125 137
125 138
125 140
125 155
125 193
125 208
126 128
126 129
126 133
126 147
126 180
126 196
126 215
127 131
127 137
127 138
127 140
127 155
127 193
127 208
128 129
128 133
128 147
128 180
128 196
128 215
129 133
129 147
129 180
129 196
129 215
130 132
130 134
130 135
130 136
131 137
131 138
131 140
131 155
131 185
131 193
131 203
131 208
132 134
132 135
132 136
132 139
132 141
132 142
132 144
132 146
132 149
132 184
132 202
132 218
132 229
132 233
133 147
133 159
133 165
133 180
133 194
133 196
133 215
134 135
134 136
134 152
134 153
134 168
134 169
134 187
134 206
134 209
134 210
134 211
134 212
134 213
134 214
134 219
134 220
134 221
134 224
134 226
134 234
135 136
135 143
135 145
135 150
135 151
135 158
135 166
135 167
136 152
136 153
136 168
136 169
136 187
136 206
137 138
137 140
137 155
137 170
137 193
137 208
138 140
138 147
138 148
138 155
138 163
138 180
138 181
138 182
138 193
138 196
138 200
138 208
138 215
138 216
138 231
139 141
139 142
139 144
139 146
139 149
139 154
139 156
139 157
139 159
139 160
139 161
139 162
139 165
139 170
139 171
139 175
139 184
139 202
139 210
139 218
139 222
139 223
139 225
139 229
139 233
140 147
140 148
140 155
140 163
140 180
140 181
140 182
140 193
140 196
140 200
140 208
140 215
140 216
140 231
141 142
141 144
141 146
141 149
141 154
141 156
141 157
141 159
141 160
141 161
141 162
141 165
141 170
141 171
141 175
141 184
141 202
141 210
141 218
141 222
141 223
141 225
141 229
141 233
142 144
142 146
142 149
142 154
142 156
142 157
142 159
142 160
142 161
142 162
142 165
142 170
142 171
142 175
142 184
142 202
142 210
142 218
142 222
142 223
142 225
142 229
142 233
143 145
143 150
143 151
143 158
143 166
143 167
143 172
143 173
143 174
143 176
143 178
143 190
143 191
143 192
143 195
143 199
143 204
143 209
143 211
143 212
143 224
143 226
143 235
144 146
144 149
144 154
144 156
144 157
144 159
144 160
144 161
144 162
144 165
144 170
144 177
144 184
144 194
144 197
144 202
144 213
144 218
144 227
144 229
144 230
144 233
145 150
145 151
145 158
145 166
145 167
145 172
145 173
145 174
145 176
145 178
145 190
145 191
145 192
145 195
145 199
145 204
145 209
145 211
145 212
145 224
145 226
145 235
146 149
146 154
146 156
146 157
146 159
146 160
146 161
146 162
146 165
146 170
146 184
146 202
146 218
146 229
146 233
147 148
147 155
147 163
147 180
147 181
147 182
147 193
147 196
147 200
147 208
147 215
147 216
147 231
148 155
148 163
148 180
148 181
148 182
148 193
148 196
148 200
148 208
148 215
148 216
148 231
149 184
149 202
149 218
149 229
149 233
150 151
150 158
150 166
150 167
150 190
150 191
150 192
150 195
150 199
150 204
150 235
151 158
151 166
151 167
152 153
152 168
152 169
152 187
152 206
153 168
153 169
153 187
153 206
153 209
153 210
153 211
153 212
153 213
153 214
153 219
153 220
153 221
154 156
154 157
154 159
154 160
154 161
154 162
154 165
154 170
154 171
154 175
154 210
154 222
154 223
154 225
154 229
155 158
155 163
155 164
155 166
155 167
155 168
155 169
155 180
155 181
155 182
155 193
155 196
155 200
155 208
155 215
155 216
155 231
156 157
156 159
156 160
156 161
156 162
156 165
156 170
156 171
156 175
156 210
156 222
156 223
156 225
156 229
157 159
157 160
157 161
157 162
157 165
157 170
157 171
157 175
157 210
157 222
157 223
157 225
157 229
158 163
158 164
158 166
158 167
158 168
158 169
158 172
158 173
158 174
158 176
158 178
158 190
158 191
158 192
158 195
158 199
158 204
158 209
158 211
158 212
158 224
158 226
158 235
159 160
159 161
159 162
159 165
159 170
159 177
159 194
159 197
159 213
159 227
159 229
159 230
160 161
160 162
160 165
160 170
160 177
160 194
160 197
160 213
160 227
160 229
160 230
161 162
161 165
161 170
161 229
162 165
162 170
162 177
162 194
162 197
162 199
162 213
162 227
162 229
162 230
163 164
163 166
163 167
163 168
163 169
163 180
163 181
163 182
163 193
163 196
163 200
163 208
163 215
163 216
163 231
164 166
164 167
164 168
164 169
165 170
165 177
165 194
165 197
165 213
165 227
165 229
165 230
166 167
166 168
166 169
166 190
166 191
166 192
166 195
166 199
166 204
166 235
167 168
167 169
168 169
168 187
168 206
169 187
169 206
169 209
169 210
169 211
169 212
169 213
169 214
169 219
169 220
169 221
170 229
171 175
171 177
171 179
171 182
171 184
171 185
171 187
171 188
171 189
171 194
171 197
171 198
171 203
171 210
171 213
171 214
171 222
171 223
171 225
171 227
171 228
171 230
172 173
172 174
172 176
172 178
172 190
172 191
172 192
172 195
172 199
172 209
172 211
172 212
172 224
172 226
173 174
173 176
173 178
173 190
173 191
173 192
173 195
173 199
173 209
173 211
173 212
173 224
173 226
174 176
174 178
174 190
174 191
174 192
174 195
174 199
174 209
174 211
174 212
174 224
174 226
175 177
175 179
175 180
175 181
175 183
175 185
175 186
175 194
175 197
175 198
175 203
175 205
175 207
175 210
175 213
175 214
175 222
175 223
175 225
175 227
175 228
175 230
176 178
176 190
176 191
176 192
176 195
176 199
176 209
176 211
176 212
176 224
176 226
177 179
177 182
177 184
177 185
177 187
177 188
177 189
177 194
177 197
177 198
177 203
177 210
177 213
177 214
177 222
177 223
177 225
177 227
177 228
177 230
178 190
178 191
178 192
178 195
178 199
178 209
178 211
178 212
178 224
178 226
179 182
179 184
179 185
179 187
179 188
179 189
179 194
179 197
179 198
179 203
179 210
179 213
179 214
179 222
179 223
179 225
179 227
179 228
179 230
180 181
180 182
180 183
180 185
180 186
180 187
180 193
180 196
180 200
180 201
180 202
180 206
180 208
180 215
180 216
180 231
181 182
181 183
181 185
181 186
181 187
181 193
181 196
181 200
181 201
181 202
181 206
181 208
181 215
181 216
181 231
182 183
182 184
182 187
182 188
182 189
182 193
182 196
182 200
182 201
182 202
182 206
182 208
182 215
182 216
182 220
182 231
182 235
182 236
183 185
183 186
183 187
183 193
183 196
183 200
183 201
183 202
183 206
184 187
184 188
184 189
184 202
184 205
184 208
184 215
184 216
184 217
184 218
184 229
184 231
184 232
184 233
184 237
185 186
185 194
185 197
185 198
185 203
185 205
185 207
185 210
185 213
185 214
185 222
185 223
185 225
185 227
185 228
185 230
187 188
187 189
187 193
187 196
187 200
187 201
187 202
187 206
187 220
187 235
187 236
188 189
188 205
188 229
188 231
188 232
188 233
188 237
190 191
190 192
190 195
190 199
190 204
190 209
190 211
190 212
190 224
190 226
190 235
191 192
191 195
191 199
191 204
191 209
191 211
191 212
191 224
191 226
191 235
192 195
192 199
192 204
192 209
192 211
192 212
192 224
192 226
192 235
193 196
193 200
193 201
193 202
193 206
193 208
193 215
193 216
193 231
194 197
194 198
194 203
194 205
194 207
194 210
194 213
194 214
194 222
194 223
194 225
194 227
194 228
194 230
195 199
195 204
195 209
195 211
195 212
195 224
195 226
195 235
196 200
196 201
196 202
196 206
196 208
196 215
196 216
196 231
197 198
197 203
197 205
197 207
197 210
197 213
197 214
197 222
197 223
197 225
197 227
197 228
197 230
198 203
198 205
198 207
198 210
198 213
198 214
198 222
198 223
198 225
198 227
198 228
198 230
199 204
199 209
199 211
199 212
199 224
199 226
199 230
199 235
200 201
200 202
200 206
200 208
200 215
200 216
200 231
201 202
201 206
202 206
202 218
202 229
202 233
203 205
203 207
203 210
203 213
203 214
203 222
203 223
203 225
203 227
203 228
203 230
204 235
205 207
205 229
205 231
205 232
205 233
205 237
208 215
208 216
208 217
208 218
208 229
208 231
208 232
208 233
209 210
209 211
209 212
209 213
209 214
209 219
209 220
209 221
209 224
209 226
209 234
210 211
210 212
210 213
210 214
210 219
210 220
210 221
210 222
210 223
210 225
210 227
210 228
210 230
211 212
211 213
211 214
211 219
211 220
211 221
211 224
211 226
211 234
212 213
212 214
212 219
212 220
212 221
212 224
212 226
212 234
213 214
213 219
213 220
213 221
213 222
213 223
213 225
213 227
213 228
213 230
214 219
214 220
214 221
214 222
214 223
214 225
214 227
214 228
214 230
215 216
215 217
215 218
215 229
215 231
215 232
215 233
216 217
216 218
216 229
216 231
216 232
216 233
217 218
217 229
217 231
217 232
217 233
218 229
218 231
218 232
218 233
219 220
219 221
219 224
219 226
219 234
220 221
220 235
220 236
222 223
222 225
222 227
222 228
222 230
223 225
223 227
223 228
223 230
224 226
224 234
225 227
225 228
225 230
226 234
227 228
227 230
228 230
229 231
229 232
229 233
229 237
231 232
231 233
231 237
232 233
232 237
233 237
235 236
0
1
2
3 4
5 6
7
8
9
10
11
12
13
14
15 16
17
18
19
20 21
22 23
24
25
26
27
28 29
30 31
32 33
34
35
36
37 38
39
40
41 42
43
44 45
46
47 48
49 50
51
52 53
54
55
56
57
58
59 60
61
62
63
64
65 66
67 68
69 70
71 72
73
74
75
76
77
78
79
80
81 82
83
84 85
86 87
88 89
90
91 92
93
94
95 96
97
98
99 100
101 102
103
104
105
106
107
108 109
110
111
112
113
114
115 116
117
118
119 120
121
122
123
124 125
126
127 128
129
130
131 132
133 134
135
136
137
138 139
140 141
142
143
144 145
146
147
148
149
150
151
152
153
154 155
156
157
158 159
160
161
162
163
164
165 166
167
168
169 170
171 172
173
174 175
176
177 178
179
180
181 182
183
184 185
186
187 188
189
190
191
192 193
194 195
196 197
198
199
200
201
202 203
204
205 206
207
208
209
210
211
212 213
214
215
216
217
218
219
220
221
222
223 224
225
226
227
228 229
230
231
232
233
234 235
236
237
